c --- [ banner ] -------------------------------------------------------------
c 
c CaDiCaL Radically Simplified CDCL SAT Solver
c Copyright (c) 2016-2021 A. Biere, M. Fleury, N. Froleyks
c 
c Version 1.5.2 a5f15211db36c3956764e18194dd5bd63bf3b5e6
c g++ (GCC) 9.3.0 -Wall -Wextra -O3 -DNDEBUG
c Fri Oct 21 01:27:37 EDT 2022 Linux gra-login3 3.10.0-1160.66.1.el7.x86_64 x86_64
c 
c --- [ limit ] --------------------------------------------------------------
c 
c setting conflict limit to 200000 conflicts (due to '200000')
c 
c --- [ parsing input ] ------------------------------------------------------
c 
c reading DIMACS file from '33.cubes1859.adj'
c opening file to read '33.cubes1859.adj'
c found 'p cnf 6160 1595472' header
c parsed 1595472 clauses in 19.53 seconds process time
c closing file '33.cubes1859.adj'
c after reading 1457566756 bytes 1390.0 MB
c 
c --- [ options ] ------------------------------------------------------------
c 
c all options are set to their default value
c 
c --- [ solving ] ------------------------------------------------------------
c 
c time measured in process time since initialization
c 
c  seconds    reductions  redundant   irredundant
c          MB     restarts       trail       variables
c            level   conflicts       glue         remaining
c 
c * 19.53 1382  0 0   0    0    0  0% 0 1595422 2394 39%
c { 20.41 1426  0 0   0    0    0  0% 0 1595422 2394 39%
c i 20.82 1444 1149 0   0   12   10 37% 2 1595422 2386 39%
c i 24.30 1514 530 0   9   63   57 31% 14 1595422 2366 38%
c i 24.72 1517 416 0  14   82   72 30% 17 1595422 2365 38%
c i 25.32 1518 331 0  21  108   95 29% 18 1595422 2364 38%
c i 25.98 1518 216 0  29  175  148 28% 17 1595422 2363 38%
c i 26.38 1519 200 0  38  220  190 27% 21 1595422 2362 38%
c i 26.51 1519 198 0  42  232  201 27% 22 1595422 2361 38%
c i 26.52 1519 198 0  42  233  201 27% 22 1595422 2360 38%
c i 26.78 1519 185 0  49  262  227 27% 24 1595422 2359 38%
c i 26.89 1519 182 0  51  269  233 27% 24 1595422 2358 38%
c - 30.93 1471 164 1  53  300  244 27% 23 197273 2358 38%
c i 31.20 1351 154 1  57  336  272 27% 25 197273 2357 38%
c i 31.43 1351 144 1  66  440  351 26% 24 197273 2356 38%
c i 31.44 1351 144 1  66  444  353 26% 24 197273 2355 38%
c i 31.53 1351 142 1  71  464  369 26% 25 197273 2353 38%
c i 31.95 1351 144 1  85  516  416 27% 30 197273 2352 38%
c i 32.15 1351 141 1  90  540  435 27% 30 197273 2351 38%
c i 32.37 1351 137 1 101  587  477 27% 31 197273 2350 38%
c 
c  seconds     reductions  redundant   irredundant
c          MB      restarts       trail       variables
c             level   conflicts       glue         remaining
c 
c i 32.49 1351 130 1 115  651  533 27% 33 197273 2349 38%
c i 32.56 1351 126 1 123  685  565 27% 33 197273 2348 38%
c i 32.58 1351 126 1 124  689  566 27% 33 197273 2347 38%
c i 32.60 1351 126 1 127  696  570 27% 33 197273 2346 38%
c i 32.80 1351 114 1 130  847  694 28% 33 197273 2345 38%
c i 32.86 1351 109 1 132  915  752 28% 33 197273 2344 38%
c } 33.11 1351 106 1 141 1002  821 28% 33 197273 2344 38%
c [ 33.11 1351  0 1 141 1002  821  0% 0 197273 2344 38%
c O 33.11 1351  1 1 141 1003  821 12% 0 197273 2344 38%
c i 33.11 1351  1 1 141 1003  821 12% 0 197273 2333 38%
c i 33.28 1351  5 1 141 1026  828 17% 4 197273 2332 38%
c i 33.41 1351 34 1 141 1076  868 26% 29 197273 2331 38%
c - 33.73 1440 34 2 141 1077  778 27% 29 197007 2331 38%
c i 33.81 1440 36 2 141 1126  819 28% 32 197007 2330 38%
c i 33.85 1440 37 2 141 1194  875 29% 30 197007 2329 38%
c i 33.86 1440 36 2 141 1195  875 29% 30 197007 2328 38%
c i 33.86 1440 36 2 141 1200  879 29% 30 197007 2327 38%
c i 33.91 1440 37 2 141 1344  996 30% 31 197007 2326 38%
c i 33.93 1440 37 2 141 1431 1049 30% 31 197007 2325 38%
c i 33.94 1440 37 2 141 1453 1060 30% 31 197007 2324 38%
c 
c  seconds    reductions  redundant   irredundant
c          MB     restarts       trail       variables
c            level   conflicts       glue         remaining
c 
c i 33.99 1440 37 2 141 1662 1223 30% 32 197007 2323 38%
c - 34.34 1439 38 3 142 2243 1280 31% 33 196984 2323 38%
c i 34.49 1439 38 3 142 2258 1292 55% 33 196984 2322 38%
c ] 34.71 1439 37 3 142 3005 1860 53% 33 196984 2322 38%
c { 34.71 1439 106 3 142 3005 1860 74% 33 196984 2322 38%
c F 34.72 1439 106 3 143 3006 1861 74% 33 196984 2322 38%
c i 34.80 1439 103 3 144 3039 1885 73% 33 196984 2321 38%
c i 35.01 1439 94 3 153 3236 2030 69% 32 196984 2320 38%
c i 35.20 1439 92 3 174 3324 2107 68% 33 196984 2319 38%
c i 35.21 1439 92 3 175 3332 2113 68% 33 196984 2318 38%
c i 35.62 1439 91 3 192 3535 2280 65% 33 196984 2317 38%
c i 35.81 1439 88 3 202 3669 2385 63% 33 196984 2316 38%
c - 36.07 1353 84 4 202 3798 1760 62% 32 196964 2316 38%
c i 36.69 1353 87 4 234 3974 1902 61% 34 196964 2314 38%
c i 37.41 1353 83 4 259 4286 2173 59% 34 196964 2313 38%
c i 37.42 1353 83 4 259 4294 2180 59% 34 196964 2312 38%
c d 38.03 1353 72 4 273 5001 2749 56% 32 196942 2307 37%
c 2 38.08 1353 72 4 273 5001 3749 56% 32 196931 2307 37%
c p 41.73 1353 72 4 273 5001 6228 56% 32 196931 2267 37%
c d 42.07 1353 72 4 273 5001 6208 56% 32 196816 2266 37%
c 
c  seconds    reductions  redundant   irredundant
c          MB     restarts       trail       variables
c            level   conflicts       glue         remaining
c 
c - 42.78 1353 65 5 275 5741 2405 55% 31 196816 2266 37%
c # 42.87 1353 62 5 275 6007 2586 54% 30 196816 2266 37%
c } 44.16 1353 59 5 316 7007 3371 53% 30 196816 2266 37%
c [ 44.16 1353 37 5 316 7007 3371 53% 33 196816 2266 37%
c - 44.74 1353 56 6 317 8071 2857 52% 44 196816 2266 37%
c ] 44.84 1353 58 6 317 8359 3060 52% 46 196816 2266 37%
c 1 44.84 1353 58 6 317 8359 3060 52% 46 196816 2266 37%
c 
c --- [ writing output ] -----------------------------------------------------
c 
c writing simplified CNF to DIMACS file 'simp/33.cubes1859.adj.simp1'
c * 44.84 1353 58 6 317 8359 3060 52% 46 196816 2266 37%
c opening file to write 'simp/33.cubes1859.adj.simp1'
c writing 'p cnf 6160 196816' header
c closing file 'simp/33.cubes1859.adj.simp1'
c after writing 97811878 bytes 93.3 MB
c wrote 196816 clauses in 0.69 seconds process time
c 
c --- [ writing extension ] --------------------------------------------------
c 
c writing extension stack to 'simp/33.cubes1859.adj.ext1'
c opening file to write 'simp/33.cubes1859.adj.ext1'
c closing file 'simp/33.cubes1859.adj.ext1'
c after writing 11154 bytes 0.0 MB
c wrote 756 witnesses in 0.00 seconds process time
c 
c --- [ result ] -------------------------------------------------------------
c 
s SATISFIABLE
c 
c --- [ run-time profiling ] -------------------------------------------------
c 
c process time taken by individual solving procedures
c (percentage relative to process time for solving)
c 
c        20.95   82.78% search
c        19.53   77.18% parse
c        17.78   70.27% unstable
c         4.36   17.22% simplify
c         3.65   14.41% probe
c         2.28    9.02% stable
c         0.88    3.48% lucky
c         0.04    0.14% ternary
c   =================================
c        25.31   55.58% solve
c 
c last line shows process time for solving
c (percentage relative to total process time)
c 
c --- [ statistics ] ---------------------------------------------------------
c 
c chronological:              2012        24.07 %  of conflicts
c conflicts:                  8359       330.28    per second
c decisions:                 44926      1775.12    per second
c fixed:                       744        12.08 %  of all variables
c learned:                    8149        97.49 %  per conflict
c learned_lits:            1695187       100.00 %  learned literals
c minimized:                     0         0.00 %  learned literals
c shrunken:                 923975        54.51 %  learned literals
c minishrunken:             152377         8.99 %  learned literals
c propagations:            1331345         0.05 M  per second
c reduced:                    3536        42.30 %  per conflict
c rephased:                      3      2786.33    interval
c restarts:                    317        26.37    interval
c stabilizing:                   2        40.14 %  of conflicts
c substituted:                   6         0.10 %  of all variables
c subsumed:                   1548         0.05 %  of all clauses
c ternary:                    1000         0.52 %  of resolved
c weakened:                     12         2.00    average size
c 
c seconds are measured in process time for solving
c 
c --- [ resources ] ----------------------------------------------------------
c 
c total process time since initialization:        45.54    seconds
c total real time since initialization:           46.46    seconds
c maximum resident set size of process:         1528.19    MB
c 
c --- [ shutting down ] ------------------------------------------------------
c 
c exit 10
WARNING! DIMACS header mismatch: wrong number of variables.
============================[ Problem Statistics ]=============================
|                                                                             |
|  Number of variables:          6120                                         |
|  Number of clauses:          196816                                         |
|  Parse time:                   1.28 s                                       |
|  Simplification time:          0.04 s                                       |
|                                                                             |
============================[ Search Statistics ]====================================================
| Conflicts |          ORIGINAL         |          LEARNT          | Num Sols |      SUBGRAPHS      |
|           |    Vars  Clauses Literals |    Limit  Clauses Lit/Cl |          | Canonical Noncanon. |
=====================================================================================================
|       100 |    6029   196816 20988821 |     2000      100    174 |        0 |        16         0 |
|       251 |    6029   196817 20989012 |     2000      251    167 |        0 |        27         1 |
|       559 |    6029   196900 20990898 |     2000      559    136 |        0 |        52        84 |
|       941 |    6029   196945 20991887 |     2000      941    131 |        0 |        71       129 |
|      1484 |    6029   196982 20992554 |     2000     1484    127 |        0 |        86       166 |
|      2761 |    6029   197500 21002097 |     3601     1762     65 |        0 |       195       684 |
|      3954 |    6029   197554 21003449 |     3601     2955     82 |        0 |       201       738 |
|      5687 |    6029   197579 21004145 |     5007     2894     73 |        0 |       226       763 |
|     10461 |    6029   199791 21049567 |     6308     5169     63 |        0 |       638      2975 |
|     14623 |    6029   200109 21057055 |     7555     6178     82 |        0 |       720      3293 |
|     20541 |    6029   200261 21060151 |     8787     8328     81 |        0 |       809      3445 |
|     29685 |    6029   200756 21071627 |    11204     8089     65 |        0 |       992      3940 |
|     44995 |    6029   203092 21120844 |    13605    11600     70 |        0 |      1312      6276 |
|     69268 |    6029   207904 21214935 |    17211    13679     66 |        0 |      2251     11088 |
|     99010 |    6029   208454 21225772 |    20813    15823     63 |        0 |      2467     11638 |
|    143694 |    6029   209349 21242706 |    25611    15305     49 |        0 |      2797     12533 |
|    212052 |    6029   212023 21285672 |    30406    28858     79 |        1 |      3469     15206 |
|    312158 |    6029   213603 21318903 |    37611    28769     75 |        1 |      3749     16786 |
|    460957 |    6029   214613 21345213 |    46017    33374     76 |        1 |      4043     17796 |
|    684990 |    6029   216963 21414102 |    56830    28820     42 |        1 |      5150     20146 |
|   1023159 |    6029   222607 21580397 |    68815    55974     77 |       11 |      6845     25780 |
|   1526982 |    6029   227642 21699704 |    84429    65811     67 |       11 |      7901     30815 |
|   2278153 |    6029   230631 21791105 |   103610    69763     66 |       11 |      8513     33804 |
|   3409279 |    6029   239483 22034158 |   126425   114104     79 |       11 |     10408     42656 |
|   5109440 |    6029   256233 22495107 |   155226   131866     84 |       16 |     14131     59401 |
|   7641193 |    6029   262870 22676653 |   190036   169629     76 |       16 |     15511     66038 |
|  11531435 |    6029   365437 24560553 |   234435   145270     49 |       16 |     20868    168605 |
|  17313974 |    6029   466464 26443416 |   287227   203401     59 |       40 |     30876    269608 |
|  25869038 |    6029   499259 27185235 |   350832   320870     75 |       48 |     38385    302395 |
|  38702459 |    6029   549277 28439532 |   430024   290883     53 |       74 |     49913    352387 |
|  58009066 |    6017   489394 26609054 |   526041   501507     70 |      198 |     81868    483765 |
=====================================================================================================
Number of solutions   : 213
Canonical subgraphs   : 96719          (7 /sec)
          order  3    : 1              (100000 /sec)
          order  4    : 1              (250000 /sec)
          order  5    : 1              (125000 /sec)
          order  6    : 1              (31250 /sec)
          order  7    : 1              (5051 /sec)
          order  8    : 2              (955 /sec)
          order  9    : 7              (325 /sec)
          order 10    : 27             (100 /sec)
          order 11    : 100            (29 /sec)
          order 12    : 432            (7 /sec)
          order 13    : 2263           (6 /sec)
          order 14    : 19751          (6 /sec)
          order 15    : 27334          (9 /sec)
          order 16    : 26870          (7 /sec)
          order 17    : 15838          (6 /sec)
          order 18    : 2019           (5 /sec)
          order 19    : 749            (5 /sec)
          order 20    : 547            (5 /sec)
          order 21    : 562            (6 /sec)
          order 22    : 213            (0 /sec)
Noncanonical subgraphs: 540519         (298 /sec)
          order  3    : 0              (-nan /sec)
          order  4    : 0              (-nan /sec)
          order  5    : 0              (-nan /sec)
          order  6    : 0              (-nan /sec)
          order  7    : 0              (-nan /sec)
          order  8    : 0              (-nan /sec)
          order  9    : 0              (-nan /sec)
          order 10    : 0              (-nan /sec)
          order 11    : 0              (-nan /sec)
          order 12    : 0              (-nan /sec)
          order 13    : 8176           (9433 /sec)
          order 14    : 45142          (2492 /sec)
          order 15    : 430495         (341 /sec)
          order 16    : 32626          (412 /sec)
          order 17    : 12884          (209 /sec)
          order 18    : 10565          (35 /sec)
          order 19    : 182            (30 /sec)
          order 20    : 2              (46 /sec)
          order 21    : 0              (-nan /sec)
Canonicity checking   : 14587.8 s
Noncanonicity checking: 1815.21 s
Total canonicity time : 16403 s
database reductions   : 487
restarts              : 94876
conflicts             : 72078274       (1411 /sec)
decisions             : 90201192       (0.00 % random) (1766 /sec)
propagations          : 7403995265     (144932 /sec)
conflict literals     : 8442908368     (58.42 % deleted)
actual reward         : 0.116054
Memory used           : 733.00 MB
CPU time              : 51086.1 s

UNSATISFIABLE
